Route #1: 157 198 197 237 238 239 240 201 202 203 204 205 206 207 208 209 210 211 212 213 214 215 216 176 175 172 173 174 133
Route #2: 137 178 177 217 218 219 220 221 222 223 224 225 226 227 228 229 230 231 232 233 234 235 236 196 195 192 193 194 153
Route #3: 100 140 141 142 139 179 180 181 182 183 184 185 186 187 188 189 190 191 151 150 148 149 143 144 145 146 147
Route #4: 118 119 120 160 121 122 162 163 164 165 166 167 168 169 170 171 161 200 199 159 158 152 154 155 156 116 117
Route #5: 78 79 80 41 81 82 83 123 124 125 126 127 128 129 130 131 132 134 135 136 138 98 99 59 60
Route #6: 22 62 63 64 61 101 102 103 104 105 106 107 108 109 110 111 112 113 114 115 75 76 77 37 35 36
Route #7: 2 42 43 44 84 85 86 87 88 89 90 91 92 93 94 95 96 97 57 55 56 58 18 19 20 21
Route #8: 3 4 1 40 39 38
Route #9: 8 9 7 6 5 45 46 47 48 49 50 51 52 53 54 14 13 10 11 12 15 16 17
Route #10: 23 24 28 29 30 31 32 27 26 25 65 66 67 68 69 70 71 72 73 74 34 33
Cost 5747.939911103357